c --- [ banner ] -------------------------------------------------------------
c 
c CaDiCaL Radically Simplified CDCL SAT Solver
c Copyright (c) 2016-2021 A. Biere, M. Fleury, N. Froleyks
c 
c Version 1.5.2 9c38a080b32c28d805e8e6ca21849856b0cda605
c g++ (Ubuntu 7.5.0-3ubuntu1~18.04) 7.5.0 -Wall -Wextra -O3 -DNDEBUG
c Wed Feb 16 23:15:36 EST 2022 Linux fac-vanhoeve01 5.4.0-99-generic x86_64
c 
c --- [ limit ] --------------------------------------------------------------
c 
c setting time limit to 600 seconds real time (due to '-t 600')
c setting conflict limit to 1000000000 conflicts (due to '1000000000')
c 
c --- [ parsing input ] ------------------------------------------------------
c 
c reading DIMACS file from 'ddfwcnfs/queen11_11.col_11.cnf'
c opening file to read 'ddfwcnfs/queen11_11.col_11.cnf'
c found 'p cnf 1331 18986' header
c parsed 18986 clauses in 0.01 seconds process time
c closing file 'ddfwcnfs/queen11_11.col_11.cnf'
c after reading 233396 bytes 0.2 MB
c 
c --- [ options ] ------------------------------------------------------------
c 
c all options are set to their default value
c 
c --- [ solving ] ------------------------------------------------------------
c 
c time measured in process time since initialization
c 
c  seconds  reductions  redundant  irredundant
c         MB    restarts       trail     variables
c          level   conflicts       glue       remaining
c 
c *  0.01  5  0 0   0    0    0  0% 0 18865 1210 91%
c {  0.01  5  0 0   0    0    0  0% 0 18865 1210 91%
c -  0.02  6  9 1   0  300  122 32% 7 18865 1210 91%
c -  0.04  6 10 2  56  900  418 31% 8 18865 1210 91%
c }  0.04  6 10 2  56 1002  471 31% 8 18865 1210 91%
c [  0.04  6  0 2  56 1002  471  0% 0 18865 1210 91%
c O  0.04  6  6 2  56 1003  472 31% 6 18865 1210 91%
c -  0.06  6 12 3  56 1801  805 31% 9 18865 1210 91%
c -  0.09  6 14 4  57 3001 1105 31% 10 18865 1210 91%
c ]  0.09  6 14 4  57 3002 1106 31% 10 18865 1210 91%
c {  0.09  6 10 4  57 3002 1106 31% 8 18865 1210 91%
c F  0.09  6 10 4  57 3006 1110 32% 8 18865 1210 91%
c -  0.13  6 10 5 153 4501 1257 32% 8 18865 1210 91%
c #  0.18  6 10 5 198 6008 2039 32% 8 18865 1210 91%
c -  0.19  6 10 6 237 6301 1496 33% 8 18865 1210 91%
c }  0.23  6 13 6 365 7002 2084 38% 9 18865 1210 91%
c [  0.23  6 14 6 365 7002 2084 31% 10 18865 1210 91%
c s  0.30  6 45 6 366 7926 2580 47% 14 18865 1210 91%
c e  0.35  7 45 6 366 7926   91 47% 14 12975 880 66%
c s  0.36  7 45 6 366 7926   89 47% 14 12975 880 66%
c 
c  seconds  reductions  redundant   irredundant
c         MB    restarts       trail      variables
c          level   conflicts       glue       remaining
c 
c ^  0.36  7 45 6 366 7926   89 47% 14 12975 880 66%
c -  0.40  7 46 7 366 8402  502 80% 15 12975 880 66%
c I  0.52  7 43 7 367 10012 1935 81% 18 12975 880 66%
c -  0.60  8 52 8 368 10802 2372 79% 25 12975 880 66%
c -  0.86  8 60 9 370 13502 3227 78% 32 12975 880 66%
c ]  1.04  8 61 9 370 15004 4566 78% 34 12975 880 66%
c {  1.04  8 13 9 370 15004 4566 57% 9 12975 880 66%
c B  1.05  8 13 9 372 15013 4575 57% 9 12975 880 66%
c -  1.16  8 16 10 708 16502 3678 58% 11 12975 880 66%
c -  1.46  8 23 11 1537 19803 4093 64% 15 12975 880 66%
c W  1.56  8 22 11 1632 21015 4926 62% 14 12975 880 66%
c -  1.71  8 23 12 1936 23403 3806 61% 15 12975 880 66%
c s  1.73  8 23 12 1950 23455 3691 61% 15 12975 880 66%
c s  1.79  8 23 12 1950 23455 3655 61% 15 12975 880 66%
c ^  1.79  8 23 12 1950 23455 3655 61% 15 12975 880 66%
c -  2.15  9 26 13 2892 27306 5257 64% 16 12975 880 66%
c F  2.19  9 26 13 2978 28017 5797 64% 16 12975 880 66%
c }  2.42  9 26 13 3420 31008 8288 63% 16 12975 880 66%
c [  2.42  9 61 13 3420 31008 8288 78% 34 12975 880 66%
c -  2.47  9 59 14 3420 31507 4802 78% 33 12975 880 66%
c 
c  seconds  reductions     redundant   irredundant
c         MB     restarts         trail      variables
c          level      conflicts       glue       remaining
c 
c -  2.85  9 53 15 3423 36007 5475 78% 30 12975 880 66%
c B  2.85  9 53 15 3423 36018 5486 78% 30 12975 880 66%
c -  3.30  8 58 16 3426 40809 5895 78% 30 12975 880 66%
c W  3.81  8 54 16 3427 45020 9874 79% 29 12975 880 66%
c -  3.92  9 53 17 3427 45909 6847 79% 29 12975 880 66%
c s  4.02  9 52 17 3428 46749 7514 79% 29 12975 880 66%
c w  4.05  9 52 17 3428 46749 7513 79% 29 12975 880 66%
c s  4.08  9 52 17 3428 46749 7505 79% 29 12975 880 66%
c ^  4.08  9 52 17 3428 46749 7505 79% 29 12975 880 66%
c -  4.61  8 48 18 3428 51309 6375 79% 28 12975 880 66%
c O  4.99  8 46 18 3429 55021 9063 79% 27 12975 880 66%
c -  5.18  9 45 19 3431 57012 6595 79% 27 12975 880 66%
c ]  5.81  9 42 19 3435 63009 11885 79% 26 12975 880 66%
c {  5.81  9 26 19 3435 63009 11885 63% 16 12975 880 66%
c -  5.83 11 26 20 3437 63012 7252 63% 16 12975 880 66%
c B  6.15 11 27 20 4189 66023 10089 65% 17 12975 880 66%
c -  6.41 11 28 21 4675 69312 7634 65% 17 12975 880 66%
c -  6.96 11 28 22 5674 75912 7760 65% 17 12975 880 66%
c s  7.04 11 27 22 5674 77808 9094 63% 17 12975 880 66%
c w  7.07 11 27 22 5674 77808 9091 63% 17 12975 880 66%
c 
c  seconds  reductions     redundant   irredundant
c         MB     restarts         trail      variables
c          level      conflicts       glue       remaining
c 
c s  7.12 11 27 22 5674 77808 9059 63% 17 12975 880 66%
c ^  7.12 11 27 22 5674 77808 9059 63% 17 12975 880 66%
c W  7.20 11 27 22 5674 78024 9185 63% 17 12975 880 66%
c -  7.36 11 25 23 5739 82814 7432 58% 16 12975 880 66%
c -  7.68 11 23 24 5832 90014 8220 53% 15 12975 880 66%
c #  7.71 11 23 24 5832 91026 8956 52% 15 12975 880 66%
c -  8.26 11 25 25 7204 97515 9741 55% 15 12975 880 66%
c B  8.56 11 23 25 7483 105027 14315 52% 14 12975 880 66%
c -  8.60 11 23 26 7552 105319 7497 52% 14 12975 880 66%
c -  9.28 11 25 27 9290 113419 10029 55% 15 12975 880 66%
c s  9.61 11 25 27 10069 116630 12282 56% 16 12975 880 66%
c w  9.64 11 25 27 10069 116630 12282 56% 16 12975 880 66%
c s  9.67 11 25 27 10069 116630 12208 56% 16 12975 880 66%
c ^  9.68 11 25 27 10069 116630 12208 56% 16 12975 880 66%
c W  9.99 11 25 27 10458 120030 14802 56% 16 12975 880 66%
c - 10.16  9 25 28 10787 121819 9902 56% 16 12975 880 66%
c } 10.57  9 26 28 11691 127010 14469 57% 16 12975 880 66%
c [ 10.57  9 42 28 11691 127010 14469 79% 26 12975 880 66%
c - 10.86 10 41 29 11691 130519 10385 79% 25 12975 880 66%
c B 11.35 10 40 29 11696 136031 15201 80% 25 12975 880 66%
c 
c  seconds  reductions        redundant   irredundant
c         MB      restarts           trail      variables
c          level       conflicts         glue       remaining
c 
c - 11.72 10 39 30 11698 139521 10532 80% 25 12975 880 66%
c - 12.75 10 37 31 11699 148821 10964 80% 25 12975 880 66%
c W 13.35 10 36 31 11700 153034 14535 80% 24 12975 880 66%
c - 13.92 11 45 32 11700 158422 12435 80% 25 12975 880 66%
c s 14.48 11 51 32 11700 163216 16810 80% 26 12975 880 66%
c s 14.56 11 51 32 11700 163216 16757 80% 26 12975 880 66%
c - 15.25 12 50 33 11701 168322 13112 80% 26 12975 880 66%
c I 15.54 12 49 33 11703 171035 15541 80% 26 12975 880 66%
c - 16.56 13 56 34 11707 178523 12770 79% 30 12975 880 66%
c - 18.33 14 60 35 11714 189023 13454 79% 34 12975 880 66%
c B 18.47 14 60 35 11714 190036 14362 79% 35 12975 880 66%
c - 19.56 13 61 36 11715 199824 13857 79% 33 12975 880 66%
c W 21.23 13 57 36 11722 210038 23013 79% 32 12975 880 66%
c - 21.41 15 57 37 11722 210925 14468 79% 32 12975 880 66%
c - 23.08 15 53 38 11729 222325 14359 79% 31 12975 880 66%
c O 24.28 15 50 38 11730 231039 21867 79% 30 12975 880 66%
c - 24.70 15 50 39 11730 234026 15407 79% 30 12975 880 66%
c - 25.98 15 47 40 11731 246026 13485 79% 29 12975 880 66%
c B 26.77 15 45 40 11732 253042 19215 79% 28 12975 880 66%
c ] 26.98 15 45 40 11732 255012 21053 79% 28 12975 880 66%
c 
c  seconds  reductions        redundant   irredundant
c         MB      restarts           trail      variables
c          level       conflicts         glue       remaining
c 
c { 26.98 15 26 40 11732 255012 21053 57% 16 12975 880 66%
c - 27.18 15 25 41 11942 258326 14136 56% 16 12975 880 66%
c - 28.28 15 26 42 14096 270926 14651 57% 16 12975 880 66%
c F 28.65 15 26 42 14666 276044 18850 57% 16 12975 880 66%
c - 29.13 15 25 43 15343 283826 13588 56% 16 12975 880 66%
c - 29.61 15 23 44 15374 297026 12936 51% 15 12975 880 66%
c B 29.73 15 23 44 15374 300048 14759 50% 14 12975 880 66%
c - 30.24 15 22 45 15949 310527 14020 49% 14 12975 880 66%
c - 30.77 15 20 46 15955 324327 13825 45% 13 12975 880 66%
c W 31.01 15 20 46 15955 325049 14320 45% 13 12975 880 66%
c - 31.75 15 19 47 16335 338428 14668 43% 13 12975 880 66%
c # 32.36 15 19 47 17486 351053 23616 43% 13 12975 880 66%
c - 32.55 15 19 48 17863 352828 16974 44% 13 12975 880 66%
c - 33.75 15 20 49 20230 367529 17328 46% 13 12975 880 66%
c B 34.16 15 19 49 20263 378054 24376 44% 13 12975 880 66%
c - 34.41 15 19 50 20435 382529 15124 43% 13 12975 880 66%
c - 35.27 15 19 51 21617 397833 15591 43% 13 12975 880 66%
c W 35.88 15 19 51 21617 406055 21082 41% 13 12975 880 66%
c - 36.34 15 18 52 22053 413434 15420 41% 12 12975 880 66%
c - 37.44 15 19 53 24118 429334 17799 43% 13 12975 880 66%
c 
c  seconds  reductions        redundant   irredundant
c         MB      restarts           trail      variables
c          level       conflicts         glue       remaining
c 
c F 38.01 15 20 53 25305 435056 22740 44% 13 12975 880 66%
c - 38.35 15 19 54 25311 445534 17172 43% 13 12975 880 66%
c s 38.37 15 19 54 25311 445534 13929 43% 13 12975 880 66%
c w 38.43 15 19 54 25311 445534 13928 43% 13 12975 880 66%
c - 39.41 15 18 55 25727 462035 16562 41% 12 12975 880 66%
c B 39.75 15 19 55 26398 465060 19248 42% 13 12975 880 66%
c - 40.39 15 18 56 26910 478836 17721 41% 12 12975 880 66%
c - 41.18 15 17 57 26937 495939 15757 39% 12 12975 880 66%
c W 41.57 15 17 57 26937 496063 15830 39% 12 12975 880 66%
c } 42.60 15 17 57 28494 511012 27114 40% 12 12975 880 66%
c [ 42.60 15 45 57 28494 511012 27114 79% 28 12975 880 66%
c - 42.71 15 44 58 28494 513340 19090 78% 28 12975 880 66%
c W 44.17 15 46 58 28494 528067 31242 74% 27 12975 880 66%
c - 44.64 17 46 59 28494 531040 21099 75% 27 12975 880 66%
c - 47.95 21 47 60 28501 549042 22569 76% 28 12975 880 66%
c I 50.01 21 46 60 28508 561071 33482 77% 28 12975 880 66%
c - 50.99 22 53 61 28509 567342 23861 76% 31 12975 880 66%
c - 54.49 23 57 62 28517 585942 23099 77% 34 12975 880 66%
c B 56.29 23 57 62 28523 595073 30932 77% 35 12975 880 66%
c - 57.90 18 59 63 28524 604842 24006 78% 35 12975 880 66%
c 
c  seconds  reductions        redundant   irredundant
c         MB      restarts           trail      variables
c          level       conflicts         glue       remaining
c 
c - 60.91 23 57 64 28526 624042 24497 78% 35 12975 880 66%
c W 62.25 23 56 64 28531 630074 29662 78% 35 12975 880 66%
c - 64.89 27 54 65 28538 643542 25059 79% 35 12975 880 66%
c - 68.71 27 52 66 28546 663343 25634 79% 34 12975 880 66%
c O 69.24 27 51 66 28547 666077 27992 79% 34 12975 880 66%
c - 71.81 27 49 67 28555 683443 26423 79% 32 12975 880 66%
c B 74.79 27 46 67 28556 703080 44991 80% 30 12975 880 66%
c - 74.97 27 46 68 28556 703844 27354 80% 30 12975 880 66%
c - 78.64 27 43 69 28557 724545 26774 80% 29 12975 880 66%
c W 81.59 27 41 69 28558 741082 41181 80% 28 12975 880 66%
c - 82.25 27 40 70 28558 745546 27692 80% 28 12975 880 66%
c - 87.22 27 37 71 28558 766846 27412 80% 26 12975 880 66%
c s 87.25 27 37 71 28558 766846 25164 80% 26 12975 880 66%
c w 87.35 27 37 71 28558 766846 25159 80% 26 12975 880 66%
c I 89.35 27 36 71 28558 780083 36135 81% 26 12975 880 66%
c - 90.73 27 44 72 28558 788447 27221 80% 28 12975 880 66%
c - 96.35 36 60 73 28562 810347 28869 80% 35 12975 880 66%
c B 98.91 36 60 73 28567 820084 37592 80% 36 12975 880 66%
c - 100.90 28 57 74 28573 832547 28111 80% 35 12975 880 66%
c - 106.33 28 52 75 28583 855048 28115 80% 32 12975 880 66%
c 
c  seconds   reductions        redundant   irredundant
c          MB      restarts           trail      variables
c           level       conflicts         glue       remaining
c 
c W 108.08 28 50 75 28587 861088 32965 80% 32 12975 880 66%
c - 110.98 28 47 76 28589 877848 28638 80% 30 12975 880 66%
c - 115.19 28 43 77 28596 900950 30056 80% 29 12975 880 66%
c O 115.64 28 43 77 28598 903091 31703 80% 28 12975 880 66%
c - 121.03 31 40 78 28607 924350 30092 80% 27 12975 880 66%
c B 125.58 31 38 78 28618 946093 48527 80% 26 12975 880 66%
c - 126.01 31 38 79 28619 948050 31248 80% 27 12975 880 66%
c - 131.26 31 36 80 28621 972051 30683 80% 26 12975 880 66%
c W 135.69 31 35 80 28621 990095 45491 80% 26 12975 880 66%
c - 137.39 32 35 81 28621 996352 31761 80% 26 12975 880 66%
c - 145.69 32 33 82 28631 1020953 32711 80% 25 12975 880 66%
c ] 146.36 32 33 82 28633 1023013 34521 80% 25 12975 880 66%
c { 146.36 32 17 82 28633 1023013 34521 40% 12 12975 880 66%
c # 147.46 32 17 82 29543 1035096 42271 41% 12 12975 880 66%
c - 148.38 32 18 83 30324 1045853 27985 41% 12 12975 880 66%
c - 149.45 32 16 84 30666 1071055 25231 38% 11 12975 880 66%
c B 150.10 32 16 84 31281 1081098 31849 38% 11 12975 880 66%
c - 150.75 32 16 85 31530 1096556 25399 37% 11 12975 880 66%
c - 152.08 32 15 86 31681 1122356 23935 35% 11 12975 880 66%
c s 152.12 32 15 86 31681 1122356 20806 35% 11 12975 880 66%
c 
c  seconds   reductions         redundant   irredundant
c          MB      restarts            trail      variables
c           level        conflicts         glue       remaining
c 
c w 152.20 32 15 86 31681 1122356 20802 35% 11 12975 880 66%
c W 153.24 32 14 86 31740 1128100 24239 35% 11 12975 880 66%
c - 154.36 32 14 87 31913 1148458 23036 33% 10 12975 880 66%
c - 156.17 32 15 88 34223 1174858 27915 36% 11 12975 880 66%
c F 156.22 32 15 88 34230 1176101 28724 36% 11 12975 880 66%
c - 157.26 32 14 89 34394 1201558 24585 34% 10 12975 880 66%
c B 158.53 32 14 89 35421 1225102 38835 34% 10 12975 880 66%
c - 158.74 32 14 90 35603 1228558 25678 34% 10 12975 880 66%
c - 159.83 32 13 91 35860 1255858 25358 33% 10 12975 880 66%
c W 161.45 32 13 91 36008 1275103 35896 32% 10 12975 880 66%
c - 161.78 32 13 92 36076 1283458 25534 32% 10 12975 880 66%
c - 163.00 32 12 93 36460 1311359 26010 31% 9 12975 880 66%
c # 163.49 32 12 93 36898 1326106 34255 31% 9 12975 880 66%
c - 164.42 32 13 94 38501 1339560 28619 33% 10 12975 880 66%
c - 166.36 32 15 95 41318 1368060 30775 37% 11 12975 880 66%
c B 167.16 32 16 95 42670 1378108 38596 38% 11 12975 880 66%
c - 168.11 32 15 96 43174 1396860 29341 37% 11 12975 880 66%
c - 169.46 32 15 97 43892 1425962 28220 35% 11 12975 880 66%
c W 170.38 32 14 97 43912 1431110 31478 35% 11 12975 880 66%
c - 173.06 32 17 98 47815 1455364 34457 40% 12 12975 880 66%
c 
c  seconds   reductions         redundant   irredundant
c          MB      restarts            trail      variables
c           level        conflicts         glue       remaining
c 
c - 176.20 32 19 99 52217 1485064 35070 44% 13 12975 880 66%
c F 176.20 32 19 99 52217 1485111 35109 44% 13 12975 880 66%
c - 177.61 32 18 100 52764 1515064 30958 41% 12 12975 880 66%
c s 177.64 32 18 100 52764 1515064 23572 41% 12 12975 880 66%
c w 177.70 32 18 100 52764 1515064 23564 41% 12 12975 880 66%
c B 178.59 32 16 100 53011 1540114 38934 38% 12 12975 880 66%
c - 178.84 32 16 101 53192 1545364 27239 38% 12 12975 880 66%
c - 180.44 32 16 102 54205 1575965 31472 37% 11 12975 880 66%
c W 183.30 32 17 102 56454 1596116 47157 39% 12 12975 880 66%
c - 183.64 32 16 103 56472 1606865 34637 38% 11 12975 880 66%
c - 185.42 32 16 104 58151 1638065 33687 38% 11 12975 880 66%
c # 186.04 32 15 104 58366 1653117 43240 37% 11 12975 880 66%
c - 186.60 32 15 105 58498 1669565 31723 36% 11 12975 880 66%
c - 188.09 32 14 106 58865 1701367 29313 34% 10 12975 880 66%
c B 188.61 32 13 106 58947 1711118 35139 34% 10 12975 880 66%
c - 190.06 32 14 107 60824 1733468 32834 35% 11 12975 880 66%
c - 191.50 32 14 108 61758 1765870 31745 35% 10 12975 880 66%
c W 192.64 32 14 108 61838 1770120 34204 34% 10 12975 880 66%
c - 195.30 32 16 109 65172 1798570 36136 38% 11 12975 880 66%
c F 196.87 32 15 109 65672 1830124 54267 36% 11 12975 880 66%
c 
c  seconds    reductions         redundant   irredundant
c          MB       restarts            trail      variables
c           level         conflicts         glue       remaining
c 
c - 197.00 32 15 110 65694 1831570 31281 36% 11 12975 880 66%
c - 198.69 32 15 111 66934 1864870 33039 36% 11 12975 880 66%
c B 199.85 32 14 111 67571 1891125 49012 34% 10 12975 880 66%
c - 200.49 32 15 112 68398 1898472 33700 35% 11 12975 880 66%
c - 202.89 32 15 113 70906 1932372 35635 37% 11 12975 880 66%
c W 206.83 32 18 113 75078 1953126 53546 43% 12 12975 880 66%
c - 207.60 32 18 114 75578 1966574 40380 41% 12 12975 880 66%
c s 207.63 32 18 114 75578 1966574 35257 41% 12 12975 880 66%
c w 207.74 32 18 114 75578 1966574 35249 41% 12 12975 880 66%
c - 211.37 32 19 115 79431 2001076 37075 44% 13 12975 880 66%
c # 212.25 32 19 115 80319 2016131 47551 43% 13 12975 880 66%
c - 214.35 32 19 116 82375 2035882 37816 44% 13 12975 880 66%
c } 214.72 32 18 116 82388 2047013 44451 42% 13 12975 880 66%
c [ 214.72 32 33 116 82388 2047013 44451 80% 25 12975 880 66%
c - 216.55 32 32 117 82398 2070982 36953 73% 24 12975 880 66%
c I 218.16 32 33 117 82403 2080132 45397 74% 24 12975 880 66%
c - 225.36 43 48 118 82407 2106382 46090 74% 31 12975 880 66%
c - 239.22 45 59 119 82422 2142085 48441 76% 39 12975 880 66%
c B 240.23 45 60 119 82422 2145133 51216 76% 39 12975 880 66%
c - 248.82 34 56 120 82437 2178085 44485 77% 38 12975 880 66%
c 
c  seconds    reductions         redundant   irredundant
c          MB       restarts            trail      variables
c           level         conflicts         glue       remaining
c 
c W 260.79 34 52 120 82439 2211135 72774 77% 36 12975 880 66%
c - 262.21 41 51 121 82439 2214385 45595 77% 36 12975 880 66%
c - 276.87 41 47 122 82440 2250987 46451 77% 34 12975 880 66%
c O 285.16 41 45 122 82440 2278140 69475 78% 34 12975 880 66%
c - 285.83 41 43 123 82440 2287888 44852 73% 32 12975 880 66%
c - 290.77 41 41 124 82441 2325090 43804 70% 28 12975 880 66%
c B 294.35 41 40 124 82441 2346141 62533 72% 27 12975 880 66%
c - 297.75 41 51 125 82441 2362591 47361 73% 30 12975 880 66%
c - 308.85 50 69 126 82441 2400392 50758 75% 33 12975 880 66%
c W 313.75 50 74 126 82441 2415144 64848 76% 34 12975 880 66%
c - 321.19 50 67 127 82448 2438492 51643 77% 33 12975 880 66%
c s 321.27 50 67 127 82448 2438492 46688 77% 33 12975 880 66%
c w 321.59 50 67 127 82448 2438492 46682 77% 33 12975 880 66%
c - 329.86 50 57 128 82466 2476895 49232 78% 31 12975 880 66%
c I 331.76 50 55 128 82470 2485147 56323 79% 31 12975 880 66%
c - 336.61 55 65 129 82477 2515595 50967 78% 35 12975 880 66%
c - 346.58 55 61 130 82494 2554595 50052 79% 35 12975 880 66%
c B 347.05 55 60 130 82495 2556150 51468 79% 35 12975 880 66%
c - 355.38 55 57 131 82504 2593896 49600 79% 35 12975 880 66%
c W 368.20 55 53 131 82506 2628154 80002 80% 35 12975 880 66%
c 
c  seconds    reductions         redundant   irredundant
c          MB       restarts            trail      variables
c           level         conflicts         glue       remaining
c 
c - 370.78 55 53 132 82510 2633500 51116 80% 35 12975 880 66%
c - 387.39 55 47 133 82528 2673402 49937 80% 33 12975 880 66%
c O 399.26 55 45 133 82535 2701155 71721 80% 33 12975 880 66%
c - 402.62 55 43 134 82538 2713604 51415 80% 32 12975 880 66%
c - 417.37 55 38 135 82557 2754107 49292 81% 29 12975 880 66%
c B 423.88 55 37 135 82565 2775156 67480 81% 28 12975 880 66%
c - 431.47 55 36 136 82567 2794910 50671 81% 27 12975 880 66%
c - 447.31 55 34 137 82568 2836011 54748 81% 26 12975 880 66%
c W 453.52 55 34 137 82568 2850158 67737 81% 26 12975 880 66%
c - 463.64 55 33 138 82568 2877411 54976 81% 26 12975 880 66%
c - 479.50 55 32 139 82583 2919111 54355 81% 26 12975 880 66%
c I 481.83 55 32 139 82584 2926159 60570 81% 26 12975 880 66%
c - 489.94 55 38 140 82599 2961112 55226 81% 27 12975 880 66%
c s 490.08 55 38 140 82599 2961112 54906 81% 27 12975 880 66%
c w 490.48 55 38 140 82599 2961112 54893 81% 27 12975 880 66%
c B 503.20 55 37 140 82614 3003160 91234 80% 27 12975 880 66%
c - 503.38 55 37 141 82614 3003413 54616 80% 27 12975 880 66%
c - 512.52 55 40 142 82630 3046013 52150 80% 27 12975 880 66%
c W 526.45 55 38 142 82631 3081164 81855 79% 27 12975 880 66%
c - 529.08 55 38 143 82631 3088915 54035 79% 27 12975 880 66%
c 
c  seconds    reductions         redundant   irredundant
c          MB       restarts            trail      variables
c           level         conflicts         glue       remaining
c 
c - 542.12 55 36 144 82652 3132118 52553 80% 27 12975 880 66%
c O 551.08 55 36 144 82662 3160166 77390 80% 27 12975 880 66%
c - 552.19 55 33 145 82663 3175619 52611 72% 25 12975 880 66%
c - 559.65 55 36 146 82684 3219419 52091 73% 26 12975 880 66%
c B 564.86 55 37 146 82692 3240167 70161 74% 27 12975 880 66%
c - 571.52 55 38 147 82694 3263521 55259 75% 27 12975 880 66%
c - 586.58 55 39 148 82695 3307922 58429 77% 28 12975 880 66%
c W 592.23 55 40 148 82695 3321170 70106 77% 28 12975 880 66%
c ] 599.93 55 39 148 82695 3343743 90422 78% 28 12975 880 66%
c ? 599.93 55 39 148 82695 3343743 90422 78% 28 12975 880 66%
c 
c --- [ result ] -------------------------------------------------------------
c 
c UNKNOWN
c 
c --- [ run-time profiling ] -------------------------------------------------
c 
c process time taken by individual solving procedures
c (percentage relative to process time for solving)
c 
c       592.80   98.81% search
c       490.94   81.83% stable
c        82.11   13.69% unstable
c        19.75    3.29% walk
c         7.11    1.19% simplify
c         3.75    0.63% probe
c         1.22    0.20% vivify
c         0.53    0.09% ternary
c         0.50    0.08% subsume
c         0.10    0.02% elim
c         0.01    0.00% parse
c         0.00    0.00% lucky
c   =================================
c       599.91  100.00% solve
c 
c last line shows process time for solving
c (percentage relative to total process time)
c 
c --- [ statistics ] ---------------------------------------------------------
c 
c chronological:            531526        15.90 %  of conflicts
c conflicts:               3343743      5573.70    per second
c decisions:               5930993      9886.40    per second
c eliminated:                  330        24.79 %  of all variables
c fixed:                       121         9.09 %  of all variables
c learned:                 3303239        98.79 %  per conflict
c learned_lits:          217687733       100.00 %  learned literals
c minimized:                     0         0.00 %  learned literals
c shrunken:               87677163        40.28 %  learned literals
c minishrunken:           17902830         8.22 %  learned literals
c propagations:          334176802         0.56 M  per second
c reduced:                 2511593        75.11 %  per conflict
c rephased:                     81     41280.78    interval
c restarts:                  82695        40.43    interval
c stabilizing:                   6        59.18 %  of conflicts
c subsumed:                 698693        10.51 %  of all clauses
c strengthened:              11943         0.18 %  of all clauses
c vivified:                    149         0.00 %  of all clauses
c walked:                       26    128605.50    interval
c weakened:                   8604         2.33    average size
c 
c seconds are measured in process time for solving
c 
c --- [ resources ] ----------------------------------------------------------
c 
c total process time since initialization:       599.93    seconds
c total real time since initialization:          600.00    seconds
c maximum resident set size of process:           55.90    MB
c 
c --- [ shutting down ] ------------------------------------------------------
c 
c exit 0
